NAME : data_8_5_tsptw.tsptw
TYPE : TSPTW
DIMENSION : 9
EDGE_WEIGHT_TYPE : EXPLICIT
EDGE_WEIGHT_FORMAT : FULL_MATRIX
EDGE_WEIGHT_SECTION
0 3162 3174 3120 2856 2520 3127 3009 3072
2940 0 752 506 537 846 848 320 594
2912 493 0 408 709 1017 569 262 327
2772 584 441 0 800 765 364 340 113
2367 609 1094 812 0 359 1170 770 900
2254 694 1118 701 335 0 926 856 789
2725 742 691 262 818 718 0 498 362
2901 398 584 307 614 916 631 0 395
2834 650 329 121 866 860 304 435 0
TIME_WINDOW_SECTION
1 0 600000
2 7200 18000
3 3600 9000
4 7200 18000
5 9000 19800
6 7200 18000
7 0 10800
8 10800 21600
9 5400 16200
DEPOT_SECTION
1
-1
EOF